NAME : eil41-3.8_387.tour
COMMENT : Cost = 8_387
COMMENT : Found by LKH-3 [Keld Helsgaun] Mon Jun  9 18:19:37 2025
TYPE : TOUR
DIMENSION : 43
TOUR_SECTION
25
23
29
34
38
43
13
10
8
12
11
26
28
9
30
41
42
24
36
32
31
27
33
7
2
5
4
6
40
3
39
1
22
37
21
15
19
16
18
14
17
20
35
-1
EOF
